nNurses = 134;
nHours = 38;
minHours = 8;
maxHours = 18;
maxConsec = 17;
maxPresence = 34;
demand = [22, 25, 23, 21, 16, 19, 21, 18, 19, 21, 25, 28, 25, 24, 21, 17, 13, 12, 10, 6, 6, 7, 12, 13, 14, 9, 9, 9, 11, 14, 12, 7, 7, 12, 15, 14, 16, 15];
